p tw 85 99
1 2
2 13
3 4
4 83
5 6
6 83
7 8
8 9
9 10
9 12
10 11
11 22
12 14
13 24
14 15
15 16
15 18
16 17
17 22
18 19
19 20
20 21
21 83
22 23
23 25
24 35
25 51
26 27
27 28
28 29
28 31
29 30
30 83
31 32
32 33
32 51
33 34
34 36
34 49
35 46
35 51
36 37
37 38
37 40
38 39
39 42
40 41
41 42
42 43
43 44
44 45
45 47
46 57
47 48
48 83
49 50
50 83
51 52
52 53
53 54
54 55
54 56
55 56
56 58
57 5
57 26
57 7
57 68
58 59
59 60
59 63
60 61
61 62
62 83
63 64
64 65
65 66
66 67
67 69
68 79
69 70
70 71
70 81
71 72
72 73
73 74
74 75
74 81
75 76
76 77
77 78
78 80
79 85
79 3
80 83
81 82
82 83
83 84
85 3
